NAME : zqloutput/eax-hard-simple-rescaleandround/50-9.tsp
TYPE : TSP
DIMENSION : 50
EDGE_WEIGHT_TYPE : EUC_2D
NODE_COORD_SECTION
1 2318 3693
2 587157 271697
3 122468 785282
4 860499 674877
5 583433 11443
6 502926 267771
7 482890 579862
8 908612 17405
9 94368 858219
10 841344 445747
11 629074 480846
12 496453 969347
13 545493 237975
14 80179 428349
15 364465 233134
16 951299 815010
17 470549 648204
18 760112 370614
19 294540 274666
20 149188 831854
21 447572 514421
22 324632 124887
23 399769 466420
24 972041 309992
25 593113 372738
26 667073 357433
27 790712 453397
28 491309 363629
29 336806 618368
30 185785 408999
31 813291 884121
32 265069 201581
33 539436 907718
34 265929 449232
35 348637 247727
36 559755 873433
37 473872 658490
38 854319 800479
39 668693 525171
40 166838 421403
41 223919 338238
42 835642 304224
43 125902 601615
44 217821 87459
45 722802 263261
46 873468 342080
47 448560 349039
48 177757 79589
49 260493 130955
50 122293 740732
EOF
